(declare-const X String)
; SystemSleuth1\x2E0versionHost\x3AArrowHost\x3a3Awebsearch\x2Edrsnsrch\x2EcomhostieiWonHost\x3apjpoptwql\x2frlnj
(assert (not (str.in_re X (str.to_re "SystemSleuth\u{13}1.0versionHost:ArrowHost:3Awebsearch.drsnsrch.com\u{13}hostieiWonHost:pjpoptwql/rlnj\u{a}"))))
; <[^>]*name[\s]*=[\s]*"?[^\w_]*"?[^>]*>
(assert (str.in_re X (re.++ (str.to_re "<") (re.* (re.comp (str.to_re ">"))) (str.to_re "name") (re.* (re.union (str.to_re " ") (str.to_re "\u{9}") (str.to_re "\u{a}") (str.to_re "\u{c}") (str.to_re "\u{d}"))) (str.to_re "=") (re.* (re.union (str.to_re " ") (str.to_re "\u{9}") (str.to_re "\u{a}") (str.to_re "\u{c}") (str.to_re "\u{d}"))) (re.opt (str.to_re "\u{22}")) (re.* (re.union (str.to_re "_") (re.range "0" "9") (re.range "A" "Z") (re.range "a" "z") (str.to_re "_"))) (re.opt (str.to_re "\u{22}")) (re.* (re.comp (str.to_re ">"))) (str.to_re ">\u{a}"))))
; /new (java|org)/Ui
(assert (not (str.in_re X (re.++ (str.to_re "/new ") (re.union (str.to_re "java") (str.to_re "org")) (str.to_re "/Ui\u{a}")))))
; for.*www\x2Eeblocs\x2Ecom\d\x2Fiis2ebs\.asp\d\<title\>Actual\x2Fpagead\x2Fads\?search2\.ad\.shopnav\.com\x2F9899\x2Fsearch\x2Fresults\.php
(assert (str.in_re X (re.++ (str.to_re "for") (re.* re.allchar) (str.to_re "www.eblocs.com\u{1b}") (re.range "0" "9") (str.to_re "/iis2ebs.asp") (re.range "0" "9") (str.to_re "<title>Actual/pagead/ads?search2.ad.shopnav.com/9899/search/results.php\u{a}"))))
; %3f\s+url=[^\n\r]*httpUser-Agent\x3A
(assert (not (str.in_re X (re.++ (str.to_re "%3f") (re.+ (re.union (str.to_re " ") (str.to_re "\u{9}") (str.to_re "\u{a}") (str.to_re "\u{c}") (str.to_re "\u{d}"))) (str.to_re "url=") (re.* (re.union (str.to_re "\u{a}") (str.to_re "\u{d}"))) (str.to_re "httpUser-Agent:\u{a}")))))
(check-sat)
